nNurses = 185;
nHours = 31;
minHours = 6;
maxHours = 18;
maxConsec = 10;
maxPresence = 26;
demand = [13, 10, 15, 13, 17, 21, 23, 28, 29, 29, 27, 24, 19, 14, 16, 12, 14, 9, 10, 12, 9, 12, 8, 5, 9, 13, 18, 20, 20, 16, 12];
